
Gurobi 8.1.1 (win64) logging started 07/08/20 00:58:58

Changed value of parameter LogFile to Results/sslp3_40_50_200_BendersBnC.log
   Prev: gurobi.log  Default: 
Changed value of parameter Heuristics to 0.0
   Prev: 0.05  Min: 0.0  Max: 1.0  Default: 0.05
Changed value of parameter lazyConstraints to 1
   Prev: 0  Min: 0  Max: 1  Default: 0
Changed value of parameter timeLimit to 7168.886184930801
   Prev: 1e+100  Min: 0.0  Max: 1e+100  Default: 1e+100
Optimize a model with 3320 rows, 240 columns and 86458 nonzeros
Variable types: 200 continuous, 40 integer (40 binary)
Coefficient statistics:
  Matrix range     [1e-13, 9e+05]
  Objective range  [5e-03, 8e+01]
  Bounds range     [1e+00, 1e+00]
  RHS range        [1e-13, 1e+04]
Warning: Model contains large matrix coefficient range
         Consider reformulating model or setting NumericFocus parameter
         to avoid numerical issues.
Presolve removed 295 rows and 0 columns
Presolve time: 0.10s
Presolved: 3025 rows, 240 columns, 83293 nonzeros
Variable types: 200 continuous, 40 integer (40 binary)

Root relaxation: objective -5.539395e+02, 394 iterations, 0.10 seconds

    Nodes    |    Current Node    |     Objective Bounds      |     Work
 Expl Unexpl |  Obj  Depth IntInf | Incumbent    BestBd   Gap | It/Node Time

     0     0 -553.93949    0   11          - -553.93949      -     -    0s
     0     0 -553.72741    0   11          - -553.72741      -     -    0s
     0     0 -553.56307    0   11          - -553.56307      -     -    0s
     0     0 -553.39904    0   12          - -553.39904      -     -    0s
     0     0 -553.25536    0   12          - -553.25536      -     -    0s
     0     0 -553.14723    0   12          - -553.14723      -     -    0s
     0     0 -553.03350    0   13          - -553.03350      -     -    0s
     0     0 -552.92652    0   12          - -552.92652      -     -    0s
     0     0 -552.84785    0   12          - -552.84785      -     -    0s
     0     0 -552.76418    0   12          - -552.76418      -     -    0s
     0     0 -552.69886    0   13          - -552.69886      -     -    0s
     0     0 -552.65330    0   13          - -552.65330      -     -    0s
     0     0 -552.56538    0   14          - -552.56538      -     -    0s
     0     0 -552.53490    0   14          - -552.53490      -     -    0s
     0     0 -552.47827    0   14          - -552.47827      -     -    1s
     0     0 -552.42182    0   14          - -552.42182      -     -    1s
     0     0 -552.39576    0   13          - -552.39576      -     -    1s
     0     0 -552.35373    0   15          - -552.35373      -     -    1s
     0     0 -552.31415    0   15          - -552.31415      -     -    1s
     0     0 -552.25544    0   15          - -552.25544      -     -    1s
     0     0 -552.21437    0   14          - -552.21437      -     -    1s
     0     0 -552.16417    0   13          - -552.16417      -     -    1s
     0     0 -552.11425    0   14          - -552.11425      -     -    1s
     0     0 -552.06686    0   14          - -552.06686      -     -    1s
     0     0 -552.02395    0   14          - -552.02395      -     -    1s
     0     0 -551.98653    0   13          - -551.98653      -     -    1s
     0     0 -551.93907    0   13          - -551.93907      -     -    1s
     0     0 -551.91016    0   13          - -551.91016      -     -    1s
     0     0 -551.86839    0   13          - -551.86839      -     -    1s
     0     0 -551.83138    0   11          - -551.83138      -     -    1s
     0     0 -551.77645    0   12          - -551.77645      -     -    1s
     0     0 -551.73389    0   13          - -551.73389      -     -    1s
     0     0 -551.70092    0   13          - -551.70092      -     -    1s
     0     0 -551.67487    0   13          - -551.67487      -     -    1s
     0     0 -551.60758    0   13          - -551.60758      -     -    1s
     0     0 -551.58037    0   13          - -551.58037      -     -    1s
     0     0 -551.53719    0   13          - -551.53719      -     -    1s
     0     0 -551.51014    0   13          - -551.51014      -     -    1s
     0     0 -551.47038    0   13          - -551.47038      -     -    1s
     0     0 -551.44782    0   13          - -551.44782      -     -    1s
     0     0 -551.43850    0   12          - -551.43850      -     -    1s
     0     0 -551.39622    0   13          - -551.39622      -     -    2s
     0     0 -551.36228    0   13          - -551.36228      -     -    2s
     0     0 -551.32185    0   14          - -551.32185      -     -    2s
     0     0 -551.29163    0   13          - -551.29163      -     -    2s
     0     0 -551.25673    0   13          - -551.25673      -     -    2s
     0     0 -551.23486    0   13          - -551.23486      -     -    2s
     0     0 -551.19328    0   12          - -551.19328      -     -    2s
     0     0 -551.17378    0   13          - -551.17378      -     -    2s
     0     0 -551.15669    0   12          - -551.15669      -     -    2s
     0     0 -551.13545    0   12          - -551.13545      -     -    2s
     0     0 -551.11284    0   12          - -551.11284      -     -    2s
     0     0 -551.08867    0   13          - -551.08867      -     -    2s
     0     0 -551.06021    0   13          - -551.06021      -     -    2s
     0     0 -551.03612    0   13          - -551.03612      -     -    2s
     0     0 -551.00506    0   12          - -551.00506      -     -    2s
     0     0 -550.97080    0   12          - -550.97080      -     -    2s
     0     0 -550.95460    0   12          - -550.95460      -     -    2s
     0     0 -550.92539    0   12          - -550.92539      -     -    2s
     0     0 -550.90449    0   12          - -550.90449      -     -    2s
     0     0 -550.88216    0   12          - -550.88216      -     -    2s
     0     0 -550.86659    0   10          - -550.86659      -     -    2s
     0     0 -550.84653    0   11          - -550.84653      -     -    2s
     0     0 -550.82098    0   12          - -550.82098      -     -    2s
     0     0 -550.80515    0   12          - -550.80515      -     -    2s
     0     0 -550.79074    0   12          - -550.79074      -     -    2s
     0     0 -550.76774    0   12          - -550.76774      -     -    2s
     0     0 -550.75183    0   12          - -550.75183      -     -    3s
     0     0 -550.73967    0   12          - -550.73967      -     -    3s
     0     0 -550.72320    0   12          - -550.72320      -     -    3s
     0     0 -550.69723    0   11          - -550.69723      -     -    3s
     0     0 -550.67813    0   12          - -550.67813      -     -    3s
     0     0 -550.65241    0   12          - -550.65241      -     -    3s
     0     0 -550.61059    0   13          - -550.61059      -     -    3s
     0     0 -550.58481    0   11          - -550.58481      -     -    3s
     0     0 -550.55059    0   11          - -550.55059      -     -    3s
     0     0 -550.54033    0   12          - -550.54033      -     -    3s
     0     0 -550.51926    0   12          - -550.51926      -     -    3s
     0     0 -550.48997    0   12          - -550.48997      -     -    3s
     0     0 -550.46613    0   12          - -550.46613      -     -    3s
     0     0 -550.44494    0   11          - -550.44494      -     -    3s
     0     0 -550.42737    0   11          - -550.42737      -     -    3s
     0     0 -550.40631    0   12          - -550.40631      -     -    3s
     0     0 -550.38652    0   12          - -550.38652      -     -    3s
     0     0 -550.35544    0   11          - -550.35544      -     -    3s
     0     0 -550.33774    0   11          - -550.33774      -     -    3s
     0     0 -550.32797    0   11          - -550.32797      -     -    3s
     0     0 -550.30500    0   11          - -550.30500      -     -    3s
     0     0 -550.27591    0   11          - -550.27591      -     -    3s
     0     0 -550.26708    0   12          - -550.26708      -     -    3s
     0     0 -550.24139    0   11          - -550.24139      -     -    3s
     0     0 -550.22777    0   11          - -550.22777      -     -    3s
     0     0 -550.21813    0   11          - -550.21813      -     -    3s
     0     0 -550.21041    0   11          - -550.21041      -     -    3s
     0     0 -550.19255    0   10          - -550.19255      -     -    3s
     0     0 -550.18848    0   11          - -550.18848      -     -    4s
     0     0 -550.16969    0   11          - -550.16969      -     -    4s
     0     0 -550.14042    0   10          - -550.14042      -     -    4s
     0     0 -550.11739    0   10          - -550.11739      -     -    4s
     0     0 -550.09924    0   11          - -550.09924      -     -    4s
     0     0 -550.07663    0   11          - -550.07663      -     -    4s
     0     0 -550.05792    0   11          - -550.05792      -     -    4s
     0     0 -550.02613    0   11          - -550.02613      -     -    4s
     0     0 -550.00605    0   11          - -550.00605      -     -    4s
     0     0 -549.98425    0   10          - -549.98425      -     -    4s
     0     0 -549.97410    0   10          - -549.97410      -     -    4s
     0     0 -549.95754    0   11          - -549.95754      -     -    4s
     0     0 -549.92967    0   10          - -549.92967      -     -    4s
     0     0 -549.91162    0    9          - -549.91162      -     -    4s
     0     0 -549.88596    0    9          - -549.88596      -     -    4s
     0     0 -549.87501    0   10          - -549.87501      -     -    4s
     0     0 -549.87248    0    9          - -549.87248      -     -    4s
     0     0 -549.86396    0    9          - -549.86396      -     -    4s
     0     0 -549.85024    0    9          - -549.85024      -     -    4s
     0     0 -549.83956    0    9          - -549.83956      -     -    4s
     0     0 -549.83153    0   10          - -549.83153      -     -    4s
     0     0 -549.82555    0    9          - -549.82555      -     -    4s
     0     0 -549.82123    0    8          - -549.82123      -     -    4s
     0     0 -549.81808    0    9          - -549.81808      -     -    4s
     0     0 -549.80883    0    8          - -549.80883      -     -    4s
     0     0 -549.79880    0    8          - -549.79880      -     -    4s
     0     0 -549.79665    0    7          - -549.79665      -     -    4s
     0     0 -549.78809    0    7          - -549.78809      -     -    4s
     0     0 -549.77412    0    9          - -549.77412      -     -    4s
     0     0 -549.77107    0    9          - -549.77107      -     -    5s
     0     0 -549.74713    0    8          - -549.74713      -     -    5s
     0     0 -549.74667    0    8          - -549.74667      -     -    5s
     0     0 -549.74276    0   10          - -549.74276      -     -    5s
     0     0 -549.73777    0   10          - -549.73777      -     -    5s
     0     0 -549.72709    0    9          - -549.72709      -     -    5s
     0     0 -549.72565    0    8          - -549.72565      -     -    5s
     0     0 -549.72504    0    8          - -549.72504      -     -    5s
     0     0 -549.72084    0    8          - -549.72084      -     -    5s
     0     0 -549.70684    0    8          - -549.70684      -     -    5s
     0     0 -549.68439    0    7          - -549.68439      -     -    5s
     0     0 -549.67328    0    7          - -549.67328      -     -    5s
     0     0 -549.66817    0    7          - -549.66817      -     -    5s
     0     0 -549.65963    0    8          - -549.65963      -     -    5s
     0     0 -549.65325    0    7          - -549.65325      -     -    5s
     0     0 -549.64694    0    8          - -549.64694      -     -    5s
     0     0 -549.64486    0    9          - -549.64486      -     -    5s
     0     0 -549.64097    0    8          - -549.64097      -     -    5s
     0     0 -549.63444    0    8          - -549.63444      -     -    5s
     0     0 -549.63102    0    8          - -549.63102      -     -    5s
     0     0 -549.62723    0    8          - -549.62723      -     -    5s
     0     0 -549.62366    0    8          - -549.62366      -     -    5s
     0     0 -549.61839    0    7          - -549.61839      -     -    5s
     0     0 -549.61492    0    8          - -549.61492      -     -    5s
     0     0 -549.61380    0    9          - -549.61380      -     -    5s
     0     0 -549.60622    0    9          - -549.60622      -     -    5s
     0     0 -549.58679    0    7          - -549.58679      -     -    5s
     0     0 -549.58579    0    6          - -549.58579      -     -    6s
     0     0 -549.58557    0    7          - -549.58557      -     -    6s
     0     0 -549.58412    0    7          - -549.58412      -     -    6s
     0     0 -549.57194    0    7          - -549.57194      -     -    6s
     0     0 -549.56997    0    8          - -549.56997      -     -    6s
     0     0 -549.55445    0    8          - -549.55445      -     -    6s
     0     0 -549.54363    0    7          - -549.54363      -     -    6s
     0     0 -549.54323    0    8          - -549.54323      -     -    6s
     0     0 -549.54153    0    7          - -549.54153      -     -    6s
     0     0 -549.53834    0    7          - -549.53834      -     -    6s
     0     0 -549.52399    0    7          - -549.52399      -     -    6s
     0     0 -549.51734    0    6          - -549.51734      -     -    6s
     0     0 -549.51497    0    7          - -549.51497      -     -    6s
     0     0 -549.50973    0    7          - -549.50973      -     -    6s
     0     0 -549.50426    0    7          - -549.50426      -     -    6s
     0     0 -549.50137    0    7          - -549.50137      -     -    6s
     0     0 -549.49817    0    8          - -549.49817      -     -    6s
     0     0 -549.49723    0    8          - -549.49723      -     -    6s
     0     0 -549.49687    0    7          - -549.49687      -     -    6s
     0     0 -549.49578    0    6          - -549.49578      -     -    6s
     0     0 -549.49449    0    8          - -549.49449      -     -    6s
     0     0 -549.49363    0    8          - -549.49363      -     -    6s
     0     0 -549.49134    0    7          - -549.49134      -     -    6s
     0     0 -549.49114    0    7          - -549.49114      -     -    6s
     0     0 -549.49054    0    7          - -549.49054      -     -    6s
     0     0 -549.48906    0    7          - -549.48906      -     -    6s
     0     0 -549.48471    0    7          - -549.48471      -     -    6s
     0     0 -549.48459    0    6          - -549.48459      -     -    6s
     0     0 -549.48436    0    7          - -549.48436      -     -    6s
     0     0 -549.48386    0    7          - -549.48386      -     -    7s
     0     0 -549.48233    0    6          - -549.48233      -     -    7s
     0     0 -549.48232    0    6          - -549.48232      -     -    7s
     0     0 -549.46576    0    7          - -549.46576      -     -    7s
     0     0 -549.45367    0    7          - -549.45367      -     -    7s
     0     0 -549.45252    0    8          - -549.45252      -     -    7s
     0     0 -549.44273    0    7          - -549.44273      -     -    7s
     0     0 -549.42035    0    7          - -549.42035      -     -    7s
     0     0 -549.41983    0    8          - -549.41983      -     -    7s
     0     0 -549.41195    0    7          - -549.41195      -     -    7s
     0     0 -549.39552    0    9          - -549.39552      -     -    7s
     0     0 -549.37140    0    8          - -549.37140      -     -    7s
     0     0 -549.36103    0    8          - -549.36103      -     -    7s
     0     0 -549.35290    0    7          - -549.35290      -     -    7s
     0     0 -549.33428    0    7          - -549.33428      -     -    7s
     0     0 -549.32701    0    8          - -549.32701      -     -    7s
     0     0 -549.32653    0    8          - -549.32653      -     -    7s
     0     0 -549.29853    0    8          - -549.29853      -     -    7s
     0     0 -549.29508    0    7          - -549.29508      -     -    7s
     0     0 -549.27686    0    7          - -549.27686      -     -    7s
     0     0 -549.27660    0    7          - -549.27660      -     -    7s
     0     0 -549.26913    0    6          - -549.26913      -     -    8s
     0     0 -549.26523    0    7          - -549.26523      -     -    8s
     0     0 -549.26219    0    7          - -549.26219      -     -    8s
     0     0 -549.26011    0    7          - -549.26011      -     -    8s
     0     0 -549.25240    0    8          - -549.25240      -     -    8s
     0     0 -549.24944    0    8          - -549.24944      -     -    8s
     0     0 -549.24415    0    8          - -549.24415      -     -    8s
     0     0 -549.23966    0    6          - -549.23966      -     -    8s
     0     0 -549.23759    0    8          - -549.23759      -     -    8s
     0     0 -549.23306    0    7          - -549.23306      -     -    8s
     0     0 -549.23041    0    7          - -549.23041      -     -    8s
     0     0 -549.21280    0    7          - -549.21280      -     -    8s
     0     0 -549.20628    0    7          - -549.20628      -     -    8s
     0     0 -549.20304    0    7          - -549.20304      -     -    8s
     0     0 -549.20175    0    7          - -549.20175      -     -    8s
     0     0 -549.19832    0    9          - -549.19832      -     -    8s
     0     0 -549.19333    0    9          - -549.19333      -     -    8s
     0     0 -549.18200    0    8          - -549.18200      -     -    8s
     0     0 -549.17204    0    9          - -549.17204      -     -    8s
     0     0 -549.16942    0    8          - -549.16942      -     -    8s
     0     0 -549.16860    0    8          - -549.16860      -     -    8s
     0     0 -549.15149    0    6          - -549.15149      -     -    8s
     0     0 -549.14640    0    9          - -549.14640      -     -    8s
     0     0 -549.13222    0    7          - -549.13222      -     -    8s
     0     0 -549.12544    0    8          - -549.12544      -     -    9s
     0     0 -549.11367    0    7          - -549.11367      -     -    9s
     0     0 -549.10978    0    8          - -549.10978      -     -    9s
     0     0 -549.10231    0    6          - -549.10231      -     -    9s
     0     0 -549.10169    0    8          - -549.10169      -     -    9s
     0     0 -549.09395    0    7          - -549.09395      -     -    9s
     0     0 -549.09185    0    7          - -549.09185      -     -    9s
     0     0 -549.07913    0    6          - -549.07913      -     -    9s
     0     0 -549.07502    0    7          - -549.07502      -     -    9s
     0     0 -549.07204    0    7          - -549.07204      -     -    9s
     0     0 -549.07079    0    7          - -549.07079      -     -    9s
     0     0 -549.06225    0    7          - -549.06225      -     -    9s
     0     0 -549.06204    0    7          - -549.06204      -     -    9s
     0     0 -549.04902    0    6          - -549.04902      -     -    9s
     0     0 -549.04877    0    6          - -549.04877      -     -    9s
     0     0 -549.04586    0    7          - -549.04586      -     -    9s
     0     0 -549.04172    0    7          - -549.04172      -     -    9s
     0     0 -549.03756    0    7          - -549.03756      -     -    9s
     0     0 -549.02862    0    7          - -549.02862      -     -    9s
     0     0 -549.02824    0    7          - -549.02824      -     -    9s
     0     0 -549.02355    0    7          - -549.02355      -     -    9s
     0     0 -549.00688    0    7          - -549.00688      -     -   10s
     0     0 -549.00581    0    7          - -549.00581      -     -   10s
     0     0 -549.00210    0    7          - -549.00210      -     -   10s
     0     0 -549.00165    0    6          - -549.00165      -     -   10s
     0     0 -549.00122    0    7          - -549.00122      -     -   10s
     0     0 -548.99958    0    7          - -548.99958      -     -   10s
     0     0 -548.99884    0    7          - -548.99884      -     -   10s
     0     0 -548.99103    0    7          - -548.99103      -     -   10s
     0     2 -548.99103    0    7          - -548.99103      -     -   10s
     7     7 -548.51742    4   11          - -548.98670      -  55.9   15s
    22    19 -545.66395   10   12          - -548.98670      -  58.3   22s
    28    19 -544.48696   12   11          - -548.98670      -  60.1   26s
    31    23 -543.87075   13   10          - -548.98670      -  61.7   31s
    41    27 -541.09231   17   12          - -548.98670      -  65.1   35s
    47    30 -538.89380   19   16          - -548.98670      -  72.5   41s
    53    36 -538.73733   20   14          - -548.98670      -  68.5   48s
    59    37 -538.15511   22   12          - -548.98670      -  67.5   52s
    62    39 -537.61434   23   12          - -548.98670      -  68.3   56s
    65    42 -537.32580   24   10          - -548.98670      -  68.1   60s
    74    47 -533.94715   27   11          - -548.98670      -  70.6   65s
    80    53 -531.52024   29   10          - -548.98670      -  71.0   70s
    88    55 -528.81492   31    9          - -548.98670      -  69.3   78s
    89    56 -490.68879   19    -          - -548.98670      -  68.7   80s
    93    59 -449.99995   19    -          - -548.98670      -  69.0   85s
    98    62 -516.43951   34    5          - -548.98670      -  69.8   90s
   104    67 -499.34654   36    3          - -548.98670      -  69.5   96s
   110    69 -486.72142   24    -          - -548.98670      -  69.9  102s
   114    68 -456.27225   40    -          - -548.66359      -  70.6  111s
*  118    71              40    6553.4398535 -548.66359   108%  72.7  114s
*  122    71              40    -327.3899909 -548.50393  67.5%  76.5  121s
   128    76 -508.39409    5    8 -327.38999 -548.50393  67.5%  79.2  131s
   133    75 -507.75522    7    6 -327.38999 -548.50393  67.5%  78.5  138s
   137    80 -466.87309    9    4 -327.38999 -548.50393  67.5%  78.3  142s
   143    83 -505.67114   10    4 -327.38999 -548.50393  67.5%  76.9  152s
   145    85 -440.71628   28    - -327.38999 -548.50393  67.5%  77.1  156s
   147    84 -503.04586   12    - -327.38999 -548.50393  67.5%  77.0  163s
   152    85 -464.24027   12    1 -327.38999 -548.50393  67.5%  76.9  171s
   158    92 -418.77658   13    1 -327.38999 -548.50393  67.5%  77.5  185s
   162    94 -414.10089   28    - -327.38999 -548.50393  67.5%  77.5  192s
   169    99 -496.05216   16    5 -327.38999 -548.50393  67.5%  78.0  196s
   173    98 -477.95314   34    - -327.38999 -548.50393  67.5%  77.4  200s
   178   104 -494.63902   18    7 -327.38999 -548.50393  67.5%  77.0  210s
   186   106 -459.89069   39    - -327.38999 -548.50393  67.5%  76.7  218s
*  189   107              40    -352.8549898 -548.50393  55.4%  77.3  221s
   191   109 -493.28004   21    6 -352.85499 -548.50393  55.4%  77.4  225s
   212   124 -450.12167   27    - -352.85499 -548.50393  55.4%  77.3  239s
   216   127 -466.60682   14    2 -352.85499 -548.50393  55.4%  77.2  245s
   225   131 -424.60757   27    3 -352.85499 -548.50393  55.4%  78.4  260s
   233   133 -498.97355   17    7 -352.85499 -548.50393  55.4%  78.2  266s
   238   138 -497.84421   19    7 -352.85499 -548.50393  55.4%  78.6  272s
   240   136 -482.99854   33    - -352.85499 -548.50393  55.4%  78.9  275s
   244   141 -442.65769   33    - -352.85499 -548.50393  55.4%  79.0  280s
   251   141 -436.98937   33    - -352.85499 -548.50393  55.4%  78.7  288s
   258   149 -415.32216   33    5 -352.85499 -548.50393  55.4%  79.1  296s
   263   149 -453.83717   24    - -352.85499 -548.50393  55.4%  79.5  304s
   267   150 -434.84174   36    - -352.85499 -548.50393  55.4%  79.8  312s
   271   153 -447.58886   24    - -352.85499 -548.50393  55.4%  79.7  317s
   276   152 -459.77674   40    - -352.85499 -548.50393  55.4%  79.2  325s
   283   154     cutoff   40      -352.85499 -546.95808  55.0%  80.6  333s
   291   156 -507.11716    6    - -352.85499 -546.95808  55.0%  81.0  342s
   297   158 -506.35115    9    - -352.85499 -546.95808  55.0%  80.7  347s
   303   163 -467.21854    9    4 -352.85499 -546.95808  55.0%  80.1  357s
   309   168 -502.42895   13    - -352.85499 -546.95808  55.0%  79.9  361s
   315   169 -463.69434   13    1 -352.85499 -546.95808  55.0%  80.2  365s
   323   175 -418.17779   14    1 -352.85499 -546.95808  55.0%  80.2  377s
   328   178 -485.59993   33    - -352.85499 -546.95808  55.0%  80.3  384s
   331   175 -417.68194   13    1 -352.85499 -546.95808  55.0%  80.7  387s
   335   181 -445.46008   33    - -352.85499 -546.95808  55.0%  80.4  392s
   339   182 -408.33701   16    1 -352.85499 -546.95808  55.0%  80.3  399s
   346   183 -453.29325   17    1 -352.85499 -546.95808  55.0%  80.4  410s
   354   189 -407.19120   18    1 -352.85499 -546.95808  55.0%  80.3  421s
   360   193 -491.40383   21    6 -352.85499 -546.95808  55.0%  80.2  430s
   366   192 -489.33976   22    - -352.85499 -546.95808  55.0%  80.3  441s
   374   196 -449.81228   22    1 -352.85499 -546.95808  55.0%  80.9  450s
   380   200 -412.14880   36    - -352.85499 -546.95808  55.0%  80.6  458s
   386   197 -488.08346   26    4 -352.85499 -546.95808  55.0%  81.2  462s
   394   202 -448.59622   28    - -352.85499 -546.95808  55.0%  80.9  474s
   401   205 -443.00176   28    - -352.85499 -546.95808  55.0%  80.6  486s
   407   210     cutoff   39      -352.85499 -546.95808  55.0%  80.4  494s
   411   210 -422.33562   28    3 -352.85499 -546.95808  55.0%  81.2  498s
   420   211 -436.88504   33    - -352.85499 -546.95808  55.0%  80.9  508s
   428   219 -460.72716   12    5 -352.85499 -546.95808  55.0%  80.2  518s
   434   224 -414.17003   33    3 -352.85499 -546.95808  55.0%  80.2  522s
   437   227 -456.78504   20    3 -352.85499 -546.95808  55.0%  80.4  525s
   445   230 -434.34149   36    - -352.85499 -546.95808  55.0%  79.9  537s
   450   233 -457.30687   19    4 -352.85499 -546.95808  55.0%  80.0  542s
   456   229 -460.37041   40    - -352.85499 -546.05809  54.8%  80.3  552s
   470   234     cutoff   40      -352.85499 -545.10866  54.5%  80.5  567s
   478   239 -503.70930    9    - -352.85499 -545.10866  54.5%  80.5  582s
   488   245 -378.90777   29    3 -352.85499 -545.10866  54.5%  80.3  593s
   497   247 -462.22489   13    1 -352.85499 -545.10866  54.5%  79.9  605s
   511   256 -459.06038   15    1 -352.85499 -545.10866  54.5%  79.9  621s
   517   261 -363.79942   37    - -352.85499 -545.10866  54.5%  80.2  629s
   523   260 -490.75894   17    - -352.85499 -545.10866  54.5%  80.4  639s
   528   265 -362.01648   38    2 -352.85499 -545.10866  54.5%  80.7  642s
   536   265 -450.88843   17    1 -352.85499 -545.10866  54.5%  80.3  652s
   542   274     cutoff   39      -352.85499 -545.10866  54.5%  80.2  658s
   546   272 -448.27990   20    1 -352.85499 -545.10866  54.5%  80.2  661s
   552   277 -502.27351   15    4 -352.85499 -545.10866  54.5%  80.1  666s
   560   273 -445.69759   22    1 -352.85499 -545.10866  54.5%  80.0  680s
   567   280 -459.64070   18    3 -352.85499 -545.10866  54.5%  80.2  691s
   574   282 -399.69836   23    1 -352.85499 -545.10866  54.5%  80.4  706s
   591   285 -483.14826   26    - -352.85499 -545.10866  54.5%  79.6  733s
   605   290 -442.66108   26    - -352.85499 -545.10866  54.5%  79.4  760s
   612   295 -440.94497   21    2 -352.85499 -545.10866  54.5%  79.1  770s
   619   300 -436.69970   26    - -352.85499 -545.10866  54.5%  78.8  788s
   628   305 -417.25404   26    - -352.85499 -545.10866  54.5%  78.8  804s
   638   305 -416.05607   26    - -352.85499 -545.10866  54.5%  78.4  822s
   645   313 -432.05542   27    - -352.85499 -545.10866  54.5%  78.1  838s
   654   311 -415.37262   26    3 -352.85499 -545.10866  54.5%  77.5  848s
   659   317 -430.26745   32    - -352.85499 -545.10866  54.5%  77.3  861s
   664   320 -407.71189   32    3 -352.85499 -545.10866  54.5%  77.3  867s
   668   323 -398.40424   35    - -352.85499 -545.10866  54.5%  77.5  872s
   674   323 -402.41884   35    - -352.85499 -545.10866  54.5%  77.7  886s
   681   328 -457.42963   39    1 -352.85499 -540.03631  53.0%  77.9  898s
   692   328     cutoff   40      -352.85499 -538.87245  52.7%  78.5  906s
   695   331 -413.06914   39    - -352.85499 -538.68498  52.7%  78.6  911s
*  698   332              40    -353.7349887 -538.68498  52.3%  78.8  914s
   701   328 -388.46030   38    - -353.73499 -538.46096  52.2%  79.2  923s
   714   332     cutoff   38      -353.73499 -537.41846  51.9%  78.6  945s
   722   336 -494.06187   24    - -353.73499 -536.26696  51.6%  78.6  961s
   740   339 -478.25857   28    4 -353.73499 -536.26696  51.6%  78.0  989s
   747   349 -443.80547   26    2 -353.73499 -536.26696  51.6%  77.7  996s
   754   347 -466.18483   32    2 -353.73499 -533.87600  50.9%  77.9 1014s
   770   360 -463.03853   34    5 -353.73499 -533.33415  50.8%  77.3 1040s
   785   365 -451.37559   39    - -353.73499 -531.45529  50.2%  76.6 1054s
   796   366     cutoff   39      -353.73499 -530.39135  49.9%  76.8 1073s
   808   370     cutoff   39      -353.73499 -528.23747  49.3%  77.3 1089s
   820   370 -445.02953   33    2 -353.73499 -524.22890  48.2%  77.1 1107s
   835   379 -388.23049   37    3 -353.73499 -516.34059  46.0%  76.3 1125s
   840   373 -442.96723   37    - -353.73499 -511.85519  44.7%  76.4 1140s
   853   378 -442.59195   37    - -353.73499 -511.15328  44.5%  76.2 1162s
   865   389 -385.24112   36    4 -353.73499 -511.15328  44.5%  76.0 1180s
   871   385 -464.49301   38    2 -353.73499 -511.15328  44.5%  75.9 1186s
   880   398     cutoff   38      -353.73499 -511.15328  44.5%  76.4 1192s
*  885   393              40    -353.8799893 -510.37350  44.2%  76.6 1203s
   913   398     cutoff   40      -353.87999 -510.35719  44.2%  76.5 1244s
*  914   391              40    -371.6649898 -510.35719  37.3%  76.6 1247s
*  916   382              40    -387.8049885 -510.35719  31.6%  76.9 1250s
   927   392 -460.07231   14    1 -387.80499 -510.35719  31.6%  77.0 1258s
   938   397 -506.97057   10    6 -387.80499 -510.35719  31.6%  76.8 1273s
   956   411 -500.84756   16    6 -387.80499 -510.35719  31.6%  76.6 1288s
   974   420 -499.45131   18    7 -387.80499 -510.35719  31.6%  76.0 1317s
   992   429 -497.68301   21    4 -387.80499 -510.35719  31.6%  75.7 1332s
  1005   440 -493.85489   25    - -387.80499 -510.35719  31.6%  75.7 1349s
  1008   443 -466.02243    9    - -387.80499 -510.35719  31.6%  75.8 1352s
  1019   450 -491.73064   27    6 -387.80499 -510.35719  31.6%  75.6 1361s
  1039   467 -486.02191   34    6 -387.80499 -510.35719  31.6%  75.8 1379s
  1060   472 -480.68929   37    - -387.80499 -510.35719  31.6%  75.3 1407s
  1068   478 -443.63841   34    3 -387.80499 -510.35719  31.6%  75.6 1410s
  1082   475     cutoff   40      -387.80499 -508.73760  31.2%  75.4 1435s
  1097   486 -465.06128    9    - -387.80499 -508.73760  31.2%  75.6 1465s
  1112   484     cutoff   40      -387.80499 -508.37516  31.1%  75.7 1490s
  1134   504 -399.03345   38    - -387.80499 -508.04191  31.0%  75.7 1520s
  1145   515     cutoff   18      -387.80499 -507.79512  30.9%  75.6 1531s
  1168   510     cutoff   38      -387.80499 -507.74860  30.9%  75.4 1568s
  1181   524     cutoff   27      -387.80499 -507.14539  30.8%  75.3 1579s
  1198   528 -463.25216   15    4 -387.80499 -507.14539  30.8%  75.2 1607s
  1207   539 -389.58726   27    2 -387.80499 -507.14539  30.8%  75.1 1610s
  1221   549 -456.75794   23    2 -387.80499 -507.14539  30.8%  74.9 1635s
  1250   557 -449.09315   32    - -387.80499 -506.91271  30.7%  74.6 1672s
  1275   580 -443.26643   37    - -387.80499 -506.43742  30.6%  74.3 1710s
  1289   588 -414.29451   16    1 -387.80499 -506.43742  30.6%  74.4 1719s
  1301   584 -439.86022   37    - -387.80499 -506.39063  30.6%  74.5 1743s
  1313   598 -399.64625   24    - -387.80499 -506.19841  30.5%  74.6 1759s
  1331   603 -417.61539   11    1 -387.80499 -506.19841  30.5%  74.4 1795s
  1364   623 -392.51500   18    5 -387.80499 -506.19841  30.5%  74.6 1836s
  1388   635 -445.13066   25    1 -387.80499 -506.01272  30.5%  74.7 1875s
  1424   643 -436.31341   32    4 -387.80499 -505.96967  30.5%  74.4 1932s
  1465   657 -434.62361   35    - -387.80499 -505.84979  30.4%  73.9 2006s
  1498   683 -433.67229   35    2 -387.80499 -505.69635  30.4%  73.5 2056s
  1515   700     cutoff   38      -387.80499 -505.57626  30.4%  73.3 2068s
  1531   706 -411.52894   36    4 -387.80499 -505.57626  30.4%  73.2 2077s
  1539   716     cutoff   38      -387.80499 -505.46061  30.3%  73.2 2084s
  1554   724 -445.24211   17    7 -387.80499 -505.46061  30.3%  73.4 2101s
  1569   732 -440.15595   20    - -387.80499 -505.46061  30.3%  73.4 2122s
  1572   735 -440.19908   39    - -387.80499 -505.46061  30.3%  73.5 2125s
  1592   744 -438.43056   22    8 -387.80499 -505.46061  30.3%  73.3 2153s
  1607   759 -436.04928   27    7 -387.80499 -505.46061  30.3%  73.3 2169s
  1635   766 -433.12638   32    6 -387.80499 -505.46061  30.3%  73.0 2210s
  1654   785     cutoff   37      -387.80499 -505.46061  30.3%  72.8 2233s
  1672   790     cutoff   40      -387.80499 -505.02552  30.2%  73.2 2252s
  1689   796     cutoff   39      -387.80499 -504.85742  30.2%  73.3 2273s
  1716   812 -450.96666   25    2 -387.80499 -504.70987  30.1%  73.3 2300s
  1740   827 -445.89080   29    4 -387.80499 -504.68824  30.1%  73.2 2334s
  1802   844 -442.69486   34    2 -387.80499 -504.67660  30.1%  72.5 2420s
  1813   861     cutoff   40      -387.80499 -504.41202  30.1%  72.5 2428s
  1835   865     cutoff   35      -387.80499 -503.95288  30.0%  72.3 2477s
  1856   881 -495.42598   14    - -387.80499 -503.95288  30.0%  72.1 2504s
  1878   886 -438.10532   35    - -387.80499 -503.84368  29.9%  72.1 2548s
  1893   906 -388.40852   22    - -387.80499 -503.84368  29.9%  72.1 2559s
  1907   908 -426.39988   35    5 -387.80499 -503.84368  29.9%  72.4 2587s
  1934   925     cutoff   38      -387.80499 -503.70930  29.9%  72.0 2636s
  1948   930     cutoff   39      -387.80499 -503.53867  29.8%  72.0 2642s
  1972   939 -450.48756   19    4 -387.80499 -503.53867  29.8%  72.1 2676s
  1997   953 -440.34155   27    4 -387.80499 -503.53867  29.8%  72.1 2716s
  2026   975 -393.36747   38    2 -387.80499 -503.23620  29.8%  71.8 2762s
  2057   985 -413.82526   14    1 -387.80499 -503.18542  29.8%  71.7 2817s
  2075   998     cutoff   15      -387.80499 -503.12587  29.7%  71.8 2856s
  2135  1003 -443.74234   24    5 -387.80499 -502.94859  29.7%  71.8 2954s
  2174  1034 -398.96363   31    - -387.80499 -502.70469  29.6%  71.5 3024s
  2211  1053 -434.60726   36    - -387.80499 -501.76517  29.4%  71.2 3096s
  2238  1063 -426.97318   36    4 -387.80499 -501.37018  29.3%  71.4 3152s
  2258  1070     cutoff   39      -387.80499 -501.13655  29.2%  71.7 3201s
  2307  1099 -413.76053   36    4 -387.80499 -500.83420  29.1%  71.1 3264s
  2314  1084 -419.54180   17    2 -387.80499 -500.56489  29.1%  71.1 3289s
  2341  1114 -463.74218   16    4 -387.80499 -500.56489  29.1%  71.0 3313s
  2354  1110 -430.48472   37    - -387.80499 -500.08144  29.0%  70.8 3339s
  2384  1122 -411.86630   16    1 -387.80499 -500.05572  28.9%  70.9 3394s
  2397  1132 -439.05541   35    - -387.80499 -500.05572  28.9%  70.9 3408s
  2414  1130     cutoff   25      -387.80499 -499.86182  28.9%  71.0 3446s
  2456  1141     cutoff   27      -387.80499 -499.39761  28.8%  70.9 3524s
  2496  1159 -431.26086   32    3 -387.80499 -499.07452  28.7%  70.9 3584s
  2518  1183 -439.52320   22    3 -387.80499 -499.02400  28.7%  70.9 3607s
  2539  1178     cutoff   40      -387.80499 -498.96585  28.7%  70.9 3661s
  2609  1212     cutoff   40      -387.80499 -498.49448  28.5%  70.5 3745s
  2623  1234 -430.05812   32    2 -387.80499 -498.48875  28.5%  70.6 3753s
  2643  1236 -439.05240   23    4 -387.80499 -498.24688  28.5%  70.5 3798s
  2680  1259 -429.96895   33    2 -387.80499 -498.18618  28.5%  70.5 3855s
  2703  1271     cutoff   34      -387.80499 -497.93968  28.4%  70.6 3909s
  2752  1282 -395.69601   37    3 -387.80499 -497.49531  28.3%  70.6 3982s
  2779  1305 -440.88980   23    3 -387.80499 -497.46654  28.3%  70.5 4005s
  2801  1310 -388.21406   23    3 -387.80499 -497.45622  28.3%  70.4 4061s
  2869  1323 -433.10073   34    - -387.80499 -496.80773  28.1%  69.7 4177s
  2908  1343 -431.97942   34    2 -387.80499 -496.61348  28.1%  69.8 4254s
  2945  1373     cutoff   38      -387.80499 -495.91164  27.9%  69.6 4297s
  2965  1372 -414.07350   36    4 -387.80499 -495.75407  27.8%  69.5 4341s
  3000  1399 -449.42744   23    1 -387.80499 -495.62180  27.8%  69.6 4393s
  3035  1414     cutoff   30      -387.80499 -495.56041  27.8%  69.7 4465s
  3064  1438 -421.57479   37    - -387.80499 -495.42598  27.8%  69.5 4499s
  3075  1432 -435.40611   34    3 -387.80499 -495.37401  27.7%  69.5 4530s
  3122  1477 -462.27370   18    7 -387.80499 -495.35918  27.7%  69.5 4737s
  3124  1478 -467.33023   10   27 -387.80499 -495.35918  27.7%  69.4 4930s
  3125  1479 -494.03383   20   27 -387.80499 -495.35918  27.7%  69.4 4941s
  3127  1483 -495.35918   14   26 -387.80499 -495.35918  27.7%  69.9 5180s
  3129  1485 -495.35918   15   25 -387.80499 -495.35918  27.7%  70.1 5237s
  3131  1486 -495.35918   15   18 -387.80499 -495.35918  27.7%  70.2 5367s
  3133  1487 -495.35918   16   24 -387.80499 -495.35918  27.7%  70.3 5498s
  3135  1489 -495.04174   16   14 -387.80499 -495.35918  27.7%  70.5 5594s
  3137  1490 -495.35918   17   24 -387.80499 -495.35918  27.7%  70.6 5759s
  3139  1490 -495.35918   17   18 -387.80499 -495.35918  27.7%  70.9 5877s
  3142  1490 -495.35918   18   23 -387.80499 -495.35918  27.7%  71.0 5942s
  3145  1494 -495.35918   18   14 -387.80499 -495.35918  27.7%  71.3 5992s
  3148  1494 -495.35918   19   24 -387.80499 -495.35918  27.7%  71.4 6039s
  3151  1498 -494.24837   19   12 -387.80499 -495.35918  27.7%  71.6 6076s
  3154  1498 -495.35918   20   25 -387.80499 -495.35918  27.7%  71.7 6131s
  3157  1500 -495.35918   20   12 -387.80499 -495.35918  27.7%  71.9 6165s
  3160  1502 -495.35918   21   24 -387.80499 -495.35918  27.7%  72.0 6209s
  3164  1505 -493.39296   21    8 -387.80499 -495.35918  27.7%  72.2 6245s
  3167  1505 -495.35918   22   24 -387.80499 -495.35918  27.7%  72.3 6304s
  3172  1510 -493.88636   22   10 -387.80499 -495.35918  27.7%  72.4 6417s
  3177  1510 -495.35918   23   16 -387.80499 -495.35918  27.7%  72.7 6486s
  3184  1518 -495.35918   24   16 -387.80499 -495.35918  27.7%  73.0 6533s
  3189  1515 -495.35918   25   24 -387.80499 -495.35918  27.7%  73.1 6584s
  3198  1522 -495.35918   26   24 -387.80499 -495.35918  27.7%  73.3 6649s
  3200  1523 -495.35918   26   12 -387.80499 -495.35918  27.7%  73.5 6723s
  3203  1523 -489.86710   27    9 -387.80499 -495.35918  27.7%  73.7 6804s
  3209  1529 -495.35918   28   19 -387.80499 -495.35918  27.7%  73.9 6870s
  3217  1533 -492.72988   29   11 -387.80499 -495.35918  27.7%  74.1 6919s
  3229  1534 -495.35918   30   16 -387.80499 -495.35918  27.7%  74.4 6966s
  3242  1541 -495.35918   31   14 -387.80499 -495.35918  27.7%  74.6 7032s
  3252  1541 -495.35918   32   18 -387.80499 -495.35918  27.7%  74.8 7088s
  3267  1544 -470.79539   33    7 -387.80499 -495.35918  27.7%  75.0 7162s

Cutting planes:
  Lazy constraints: 9200

Explored 3283 nodes (249909 simplex iterations) in 7174.92 seconds
Thread count was 4 (of 4 available processors)

Solution count 7: -387.805 -371.665 -353.88 ... 6553.44

Time limit reached
Best objective -3.878049885379e+02, best bound -4.953591752840e+02, gap 27.7341%
